NAME 
ROWS
 N  OBJ
 L  R0      
 L  R1      
 L  R2      
 E  R3      
COLUMNS
    MARKER    'MARKER'                 'INTORG'
    I0(4)     OBJ       -820
    I0(4)     R0        -845
    I0(4)     R1        -8
    I0(4)     R2        -679
    I0(4)     R3        718
    I1(4)     OBJ       -507
    I1(4)     R0        -120
    I1(4)     R1        -445
    I1(4)     R2        -618
    I1(4)     R3        329
    I2(4)     OBJ       -89
    I2(4)     R0        -58
    I2(4)     R1        -600
    I2(4)     R2        -866
    I2(4)     R3        567
    I3(4)     OBJ       -786
    I3(4)     R0        -286
    I3(4)     R1        -29
    I3(4)     R2        -154
    I3(4)     R3        900
    I4(4)     OBJ       -342
    I4(4)     R0        -626
    I4(4)     R1        -482
    I4(4)     R2        -765
    I4(4)     R3        520
    I5(4)     OBJ       -812
    I5(4)     R0        -608
    I5(4)     R1        -730
    I5(4)     R2        -95
    I5(4)     R3        956
    I6(4)     OBJ       -919
    I6(4)     R0        -321
    I6(4)     R1        -377
    I6(4)     R2        -971
    I6(4)     R3        709
    I7(4)     OBJ       -278
    I7(4)     R0        -752
    I7(4)     R1        -207
    I7(4)     R2        -723
    I7(4)     R3        318
    I8(4)     OBJ       -195
    I8(4)     R0        -624
    I8(4)     R1        -259
    I8(4)     R2        -242
    I8(4)     R3        665
    I9(4)     OBJ       -861
    I9(4)     R0        -970
    I9(4)     R1        -63
    I9(4)     R2        -65
    I9(4)     R3        268
    I10(4)    OBJ       -351
    I10(4)    R0        -59
    I10(4)    R1        -134
    I10(4)    R2        -877
    I10(4)    R3        740
    I11(4)    OBJ       -447
    I11(4)    R0        -444
    I11(4)    R1        -104
    I11(4)    R2        -250
    I11(4)    R3        343
    I12(4)    OBJ       -21
    I12(4)    R0        -476
    I12(4)    R1        -183
    I12(4)    R2        -509
    I12(4)    R3        885
    I13(4)    OBJ       -38
    I13(4)    R0        -147
    I13(4)    R1        -191
    I13(4)    R2        -477
    I13(4)    R3        606
    I14(4)    OBJ       -130
    I14(4)    R0        -229
    I14(4)    R1        -389
    I14(4)    R2        -278
    I14(4)    R3        497
    I15(4)    OBJ       -349
    I15(4)    R0        -817
    I15(4)    R1        -809
    I15(4)    R2        -990
    I15(4)    R3        650
    I16(4)    OBJ       -725
    I16(4)    R0        -959
    I16(4)    R1        -799
    I16(4)    R2        -206
    I16(4)    R3        700
    I17(4)    OBJ       -530
    I17(4)    R0        -148
    I17(4)    R1        -709
    I17(4)    R2        -655
    I17(4)    R3        467
    I18(4)    OBJ       -687
    I18(4)    R0        -94
    I18(4)    R1        -560
    I18(4)    R2        -196
    I18(4)    R3        373
    I19(4)    OBJ       -927
    I19(4)    R0        -154
    I19(4)    R1        -423
    I19(4)    R2        -464
    I19(4)    R3        942
    I20(1)    R3        1
    MARKER    'MARKER'                 'INTEND'
RHS
    RHS1      R0        -5093
    RHS1      R1        -3724
    RHS1      R2        -4981
    RHS1      R3        6076
BOUNDS
 UP BND1      I0(4)     1
 UP BND1      I1(4)     1
 UP BND1      I2(4)     1
 UP BND1      I3(4)     1
 UP BND1      I4(4)     1
 UP BND1      I5(4)     1
 UP BND1      I6(4)     1
 UP BND1      I7(4)     1
 UP BND1      I8(4)     1
 UP BND1      I9(4)     1
 UP BND1      I10(4)    1
 UP BND1      I11(4)    1
 UP BND1      I12(4)    1
 UP BND1      I13(4)    1
 UP BND1      I14(4)    1
 UP BND1      I15(4)    1
 UP BND1      I16(4)    1
 UP BND1      I17(4)    1
 UP BND1      I18(4)    1
 UP BND1      I19(4)    1
 LI BND1      I20(1)    0
ENDATA
